p cnf 2453 2302
c ind 782 783 784 785 786 787 788 789 790 791 0
c ind 792 793 794 795 796 797 798 799 800 801 0
c ind 802 803 804 805 806 807 808 809 810 811 0
c ind 812 813 814 815 816 817 818 819 820 821 0
c ind 822 823 824 1216 1217 1218 1219 1220 1221 1222 0
c ind 1223 1224 1225 1226 963 1227 1228 870 871 872 0
c ind 873 874 1046 1047 1048 1049 1229 1050 1230 1051 0
c ind 1052 1053 1231 1031 1232 1032 1033 1034 1035 1036 0
c ind 1037 1038 1233 1039 1040 1041 1234 1235 1042 1043 0
c ind 1236 1237 1044 1045 1009 1010 1011 1012 1013 1238 0
c ind 1014 1015 1016 1017 964 1018 1239 1240 1019 1020 0
c ind 1021 1022 1241 1242 1023 1024 1025 1026 1027 1028 0
c ind 1029 1030 965 966 1243 1244 967 968 969 1245 0
c ind 1246 970 971 972 973 974 975 976 977 1247 0
c ind 978 979 980 981 982 983 1248 984 1249 985 0
c ind 1250 986 1251 987 988 989 990 991 992 1054 0
c ind 993 1252 1253 994 995 1254 996 997 998 999 0
c ind 1000 1001 1002 1003 1004 1005 1006 1255 1007 1008 0
c ind 875 876 877 878 1256 879 1257 880 1258 881 0
c ind 1259 882 883 884 885 886 887 888 889 890 0
c ind 891 892 893 894 895 896 897 898 1055 899 0
c ind 900 901 902 903 904 905 906 907 908 909 0
c ind 910 911 912 913 914 915 916 917 918 1172 0
c ind 1173 1174 1175 1176 1177 1178 1179 1180 1181 1182 0
c ind 1183 1184 1185 1186 1187 1188 1189 1190 1191 1192 0
c ind 1193 1194 1195 1196 1197 1198 1199 1200 1201 1202 0
c ind 1203 1204 1205 1206 1207 1208 1209 1210 1211 1212 0
c ind 1213 1214 1215 825 826 827 828 829 830 831 0
c ind 1056 832 833 834 835 836 837 838 839 840 0
c ind 841 842 843 844 845 846 847 848 849 850 0
c ind 851 852 853 854 855 856 857 858 859 860 0
c ind 861 862 863 864 865 866 867 868 919 920 0
c ind 869 921 922 923 924 925 926 927 928 929 0
c ind 930 931 932 933 934 935 936 937 938 939 0
c ind 940 941 942 943 944 945 946 947 948 949 0
c ind 950 951 952 953 954 955 956 957 958 959 0
c ind 960 961 962 753 754 755 756 757 758 759 0
c ind 760 761 762 763 764 765 766 767 768 769 0
c ind 770 771 772 773 774 775 776 777 778 779 0
c ind 780 781 0
614 -615 640 0
614 -615 -724 1423 0
614 -615 724 -1423 0
-614 615 0
-640 -724 -614 -1423 0
-640 724 -614 1423 0
615 -616 -630 -639 0
-615 616 0
-615 630 0
-615 639 0
616 617 -621 0
-616 -617 0
-616 621 0
-618 -1044 617 0
-620 -1044 617 0
-619 -1044 617 0
-617 1044 0
-617 618 619 620 0
618 -1013 1014 1015 0
-618 1013 0
-618 -1015 0
-618 -1014 0
619 1013 1016 1017 0
-619 -1013 0
-619 -1017 0
-619 -1016 0
620 1009 1010 -1045 0
-620 1045 0
-620 -1010 0
-620 -1009 0
621 622 626 -967 -995 0
-621 995 0
-621 -626 0
-621 967 0
-621 -622 0
623 968 622 969 970 0
-622 -623 0
-622 -970 0
-622 -968 0
-622 -969 0
623 624 -973 0
623 624 625 -974 0
-623 -624 0
-623 -625 973 0
-623 973 974 0
624 971 -972 0
-624 -971 0
-624 972 0
625 979 980 0
625 979 987 988 0
-625 -979 0
-625 -980 -987 0
-625 -980 -988 0
627 996 626 997 998 0
-626 -627 0
-626 -998 0
-626 -996 0
-626 -997 0
627 628 -1001 0
627 628 629 -1002 0
-627 -628 0
-627 -629 1001 0
-627 1001 1002 0
628 999 -1000 0
-628 -999 0
-628 1000 0
629 1007 1008 0
629 881 882 1007 0
-629 -1007 0
-629 -882 -1008 0
-629 -881 -1008 0
630 -633 840 0
630 -633 833 0
630 631 -633 0
-630 633 0
-631 -833 -630 -840 0
631 -632 -841 842 0
-631 841 0
-631 -842 0
-631 632 0
632 844 -845 -846 847 0
-632 -844 0
-632 -847 0
-632 846 0
-632 845 0
633 634 -637 638 0
633 634 -637 963 0
-633 637 0
-633 -634 0
-638 -963 -633 0
-635 -636 634 -1213 0
-635 -636 634 -1214 0
-634 636 0
-634 635 0
-634 1213 1214 0
635 -1210 -1211 -1212 1215 0
-635 1212 0
-635 -1215 0
-635 1210 0
-635 1211 0
636 825 826 827 828 0
-636 -828 0
-636 -827 0
-636 -825 0
-636 -826 0
637 -767 -796 -919 -948 0
-637 948 0
-637 767 0
-637 919 0
-637 796 0
638 1182 1183 1184 0
-638 -1182 0
-638 -1184 0
-638 -1183 0
639 -1054 -1056 0
639 869 -1055 0
639 869 -1054 0
639 -1055 -1056 0
-869 1056 -639 0
1054 1055 -639 0
640 -641 715 -716 -1437 0
640 -641 715 716 1437 0
-640 -715 0
-640 -716 1437 0
-640 641 0
-640 716 -1437 0
641 -642 705 1428 0
641 -642 -705 -1428 0
-641 642 0
-641 705 -1428 0
-641 -705 1428 0
642 -643 -660 0
642 -660 1445 0
-642 660 0
-642 643 -1445 0
643 -644 -637 0
643 658 -637 0
637 -643 0
-643 644 -658 0
644 -645 -657 -1259 0
644 645 -646 -657 0
-644 657 0
-644 -645 1259 0
-644 645 646 0
645 864 -866 0
-645 -864 0
-645 866 0
646 -647 -1258 0
646 647 -648 0
-646 -647 1258 0
-646 647 648 0
647 836 -838 0
-647 -836 0
-647 838 0
648 649 634 656 0
648 649 634 -653 0
-634 -648 0
-648 -649 0
-648 653 -656 0
649 -651 963 -1203 0
649 650 963 1203 0
-649 -963 0
-649 651 -1203 0
-649 -650 1203 0
650 -1255 -616 0
-650 1255 0
616 -650 0
651 -652 1256 0
650 651 652 0
-651 -652 -1256 0
-650 -651 652 0
652 916 -918 0
-652 -916 0
-652 918 0
651 653 -654 0
-651 -653 0
-653 654 0
654 655 -1182 0
654 655 -1183 0
654 655 -1184 0
-654 -655 0
-654 1182 1183 1184 0
655 1190 -1192 0
-655 -1190 0
-655 1192 0
655 656 -963 0
656 -963 1257 0
-656 963 0
-655 -656 -1257 0
657 -833 840 0
-657 833 0
-657 -840 0
658 659 -833 0
646 648 658 0
648 658 659 0
646 658 -833 0
-648 -658 833 0
-646 -658 -659 0
631 659 -833 -840 0
-659 833 0
-659 840 0
-631 -659 0
660 -661 695 1265 0
660 -661 -695 -1265 0
-660 661 0
-660 695 -1265 0
-660 -695 1265 0
661 -694 -662 1408 0
661 694 -662 -1408 0
-661 662 0
-661 -694 -1408 0
-661 694 1408 0
662 -672 -663 0
-662 663 0
-662 672 0
663 -637 -664 0
663 -637 671 0
637 -663 0
664 -671 -663 0
645 -657 664 -665 0
-645 -657 664 -1232 0
657 -664 0
645 -664 665 0
-645 -664 1232 0
-647 665 -1231 0
647 665 -666 0
-647 -665 1231 0
647 -665 666 0
666 667 634 670 0
666 667 634 -669 0
-634 -666 0
-666 -667 0
-666 669 -670 0
667 -668 963 -1203 0
616 667 963 1203 0
-667 -963 0
-667 668 -1203 0
-667 1203 -616 0
616 652 668 0
-652 668 1229 0
652 -668 -616 0
-652 -668 -1229 0
-654 668 669 0
654 -669 0
-668 -669 0
655 670 -963 0
670 -963 1230 0
-670 963 0
-655 -670 -1230 0
665 671 -833 0
659 666 671 0
665 666 671 0
659 671 -833 0
-659 -665 -671 0
-666 -671 833 0
672 -673 -680 0
672 675 -678 -680 0
-672 680 0
673 -675 -672 0
673 678 -672 0
-647 673 -833 0
673 -674 -833 0
-673 833 0
647 -673 674 0
-645 674 840 -1246 0
645 -674 0
-674 1246 0
-674 -840 0
675 -677 963 -1203 0
675 676 963 1203 0
-675 -963 0
-675 677 -1203 0
-675 -676 1203 0
676 -1056 -616 0
-676 1056 0
616 -676 0
-652 677 1243 0
652 676 677 0
-652 -677 -1243 0
652 -676 -677 0
678 679 634 0
-654 677 634 678 0
-634 -678 0
654 -678 -679 0
-677 -678 -679 0
655 679 -963 0
679 -963 1244 0
-679 963 0
-655 -679 -1244 0
680 -681 -683 -688 0
680 683 -685 -688 0
-680 688 0
681 -683 -680 0
683 685 -680 0
681 -1224 -1254 0
681 682 -1254 0
-681 1254 0
-681 -682 1224 0
682 -1216 -621 1218 0
-682 1216 0
-682 -1218 0
621 -682 0
683 894 -963 0
683 684 894 0
683 894 -1203 0
-683 -894 0
-683 -684 963 1203 0
684 1204 1205 1206 1207 0
-684 -1207 0
-684 -1206 0
-684 -1204 0
-684 -1205 0
685 687 -621 -1222 0
685 686 -621 687 0
621 -685 0
-685 -687 0
-685 -686 1222 0
686 -1216 1218 0
-686 1216 0
-686 -1218 0
-617 687 1216 0
687 1046 1216 1253 0
-687 -1216 0
-687 -1046 617 0
-687 -1253 617 0
-674 688 -630 0
688 689 -630 0
688 -693 -630 0
630 -688 0
674 -689 -688 693 0
-647 689 -833 0
689 690 -833 0
-689 833 0
647 -689 -690 0
690 691 692 0
632 690 691 -833 0
-690 -691 0
-690 -692 833 0
-632 -690 -692 0
-645 691 840 0
-691 -840 0
645 -691 0
692 -840 -841 842 0
-692 840 0
-692 841 0
-692 -842 0
-690 693 -1245 0
-693 1245 0
690 -693 0
-682 694 -630 0
630 -694 0
682 -694 0
695 -696 -637 0
695 704 -637 0
637 -695 0
-695 696 -704 0
645 -657 696 -697 0
-645 -657 696 -1228 0
657 -696 0
645 -696 697 0
-645 -696 1228 0
-647 697 -1227 0
647 697 -698 0
-647 -697 1227 0
647 -697 698 0
698 699 634 703 0
698 699 634 -702 0
-634 -698 0
-698 -699 0
-698 702 -703 0
699 700 -963 1226 0
655 699 700 -963 0
-699 963 0
-699 -700 0
-655 -699 -1226 0
-654 700 701 0
654 -700 0
-700 -701 0
-652 701 1225 0
616 652 701 0
652 701 869 0
-652 -701 -1225 0
652 -701 -616 -869 0
702 -869 -616 1203 0
652 702 -616 -869 0
-702 869 0
616 -702 0
-652 -702 -1203 0
703 963 1225 0
703 963 1203 0
652 703 963 0
-703 -963 0
-652 -703 -1203 -1225 0
697 704 -833 0
659 698 704 0
697 698 704 0
659 704 -833 0
-659 -697 -704 0
-698 -704 833 0
705 712 -637 0
705 706 -637 -709 0
637 -705 0
-705 -706 -712 0
-705 709 -712 0
706 -708 963 -1203 0
706 707 963 1203 0
-706 -963 0
-706 708 -1203 0
-706 -707 1203 0
707 -1238 -616 0
-707 1238 0
616 -707 0
-652 708 1239 0
652 707 708 0
-652 -708 -1239 0
652 -707 -708 0
709 -710 711 0
-654 708 709 -710 0
-709 710 0
654 -709 -711 0
-708 -709 -711 0
689 710 634 0
-634 -710 0
-689 -710 0
655 711 -963 0
711 -963 1240 0
-711 963 0
-655 -711 -1240 0
645 712 713 0
657 712 713 0
712 713 1242 0
-712 -713 0
-645 -657 -712 -1242 0
-647 713 -714 -1241 0
-713 1241 0
647 -713 0
-713 714 0
-690 714 -833 0
-714 833 0
690 -714 0
-643 715 1445 0
-715 -1445 0
643 -715 0
716 722 -637 0
716 717 -637 -720 0
637 -716 0
-716 -717 -722 0
-716 720 -722 0
717 -719 963 -1203 0
717 718 963 1203 0
-717 -963 0
-717 719 -1203 0
-717 -718 1203 0
718 -1247 -616 0
-718 1247 0
616 -718 0
-652 719 1248 0
652 718 719 0
-652 -719 -1248 0
652 -718 -719 0
-710 720 721 0
-654 -710 719 720 0
710 -720 0
654 -720 -721 0
-719 -720 -721 0
655 721 -963 0
721 -963 1249 0
-721 963 0
-655 -721 -1249 0
645 722 723 0
657 722 723 0
722 723 1251 0
-722 -723 0
-645 -657 -722 -1251 0
-647 -714 723 -1250 0
-723 1250 0
647 -723 0
714 -723 0
724 -725 -637 0
724 733 -637 0
637 -724 0
-724 725 -733 0
645 -657 725 -726 0
-645 -657 725 -1237 0
657 -725 0
645 -725 726 0
-645 -725 1237 0
-647 726 -1236 0
647 726 -727 0
-647 -726 1236 0
647 -726 727 0
727 728 634 732 0
727 728 634 -731 0
-634 -727 0
-727 -728 0
-727 731 -732 0
728 -730 963 -1203 0
728 729 963 1203 0
-728 -963 0
-728 730 -1203 0
-728 -729 1203 0
729 -1233 -616 0
-729 1233 0
616 -729 0
-652 730 1234 0
652 729 730 0
-652 -730 -1234 0
652 -729 -730 0
-654 730 731 0
654 -731 0
-730 -731 0
655 732 -963 0
732 -963 1235 0
-732 963 0
-655 -732 -1235 0
726 733 -833 0
659 727 733 0
726 727 733 0
659 733 -833 0
-659 -726 -733 0
-727 -733 833 0
739 -615 734 0
735 -615 734 0
615 -734 0
-734 -735 -739 0
695 735 -663 -736 1962 0
-695 735 -663 -736 -1962 0
-735 736 0
695 -1962 -735 0
663 -735 0
-695 1962 -735 0
736 -737 -738 2125 0
-705 736 -737 -738 0
-736 738 0
-736 737 0
705 -2125 -736 0
-694 737 -672 2105 0
694 737 -672 -2105 0
672 -737 0
-694 -2105 -737 0
694 2105 -737 0
716 738 -2125 2134 0
705 -716 738 -2134 0
-716 738 -2125 -2134 0
705 716 738 2134 0
-716 2134 -738 0
716 -2134 -738 0
-705 2125 -738 0
643 -724 739 -2120 2142 0
-643 -724 739 -2120 -2142 0
643 724 739 2120 2142 0
-643 724 739 2120 -2142 0
-724 2120 -739 0
724 -2120 -739 0
643 -2142 -739 0
-643 2142 -739 0
-724 740 -615 0
640 740 -615 0
615 -740 0
-640 724 -740 0
-715 741 -615 0
641 741 -615 0
-716 741 -615 0
615 -741 0
-641 715 716 -741 0
-705 742 -615 0
642 742 -615 0
-715 742 -615 0
615 -742 0
-642 705 715 -742 0
-643 743 -615 0
660 743 -615 0
615 -743 0
643 -660 -743 0
-695 744 -615 0
661 744 -615 0
615 -744 0
-661 695 -744 0
694 745 -615 0
662 745 -615 0
615 -745 0
-694 -745 -662 0
662 746 -615 0
615 -746 0
-662 -746 0
724 747 -615 0
640 747 -615 0
615 -747 0
-640 -724 -747 0
-715 748 -615 0
716 748 -615 0
641 748 -615 0
615 -748 0
-641 715 -716 -748 0
705 749 -615 0
642 749 -615 0
-715 749 -615 0
615 -749 0
-642 -705 715 -749 0
660 750 -615 0
643 750 -615 0
615 -750 0
-643 -660 -750 0
695 751 -615 0
661 751 -615 0
615 -751 0
-661 -695 -751 0
-694 752 -615 0
662 752 -615 0
615 -752 0
694 -752 -662 0
1 614 0
-1 -614 0
2 614 0
-2 -614 0
3 734 0
-3 -734 0
89 -740 0
-89 740 0
90 -741 0
-90 741 0
91 -742 0
-91 742 0
92 -743 0
-92 743 0
97 -744 0
-97 744 0
110 -745 0
-110 745 0
210 -746 0
-210 746 0
394 -747 0
-394 747 0
395 -748 0
-395 748 0
396 -749 0
-396 749 0
397 -750 0
-397 750 0
402 -751 0
-402 751 0
415 -752 0
-415 752 0
515 -746 0
-515 746 0
-89 -394 2233 0
89 -2233 0
394 -2233 0
89 -1423 0
-89 1423 0
-90 -395 2234 0
90 -2234 0
395 -2234 0
90 -1437 0
-90 1437 0
-91 -396 2235 0
91 -2235 0
396 -2235 0
91 -1428 0
-91 1428 0
-92 -397 2236 0
92 -2236 0
397 -2236 0
92 -1445 0
-92 1445 0
-97 -402 2241 0
97 -2241 0
402 -2241 0
97 -1265 0
-97 1265 0
-110 -415 2254 0
110 -2254 0
415 -2254 0
110 -1408 0
-110 1408 0
-210 -515 2354 0
210 -2354 0
515 -2354 0
210 -1133 0
-210 1133 0
-1 0
-2 0
3 0
4 0
5 0
6 0
7 0
8 0
9 0
10 0
11 0
12 0
13 0
14 0
15 0
16 0
17 0
18 0
19 0
20 0
21 0
22 0
23 0
24 0
25 0
26 0
27 0
28 0
29 0
30 0
31 0
32 0
33 0
34 0
35 0
36 0
37 0
38 0
39 0
40 0
41 0
42 0
43 0
44 0
45 0
46 0
47 0
48 0
49 0
50 0
51 0
52 0
53 0
54 0
55 0
56 0
57 0
58 0
59 0
60 0
61 0
62 0
63 0
64 0
65 0
66 0
67 0
68 0
69 0
70 0
71 0
72 0
73 0
74 0
75 0
76 0
77 0
78 0
79 0
80 0
81 0
82 0
83 0
84 0
85 0
86 0
87 0
88 0
93 0
94 0
95 0
96 0
98 0
99 0
100 0
101 0
102 0
103 0
104 0
105 0
106 0
107 0
108 0
109 0
111 0
112 0
113 0
114 0
115 0
116 0
117 0
118 0
119 0
120 0
121 0
122 0
123 0
124 0
125 0
126 0
127 0
128 0
129 0
130 0
131 0
132 0
133 0
134 0
135 0
136 0
137 0
138 0
139 0
140 0
141 0
142 0
143 0
144 0
145 0
146 0
147 0
148 0
149 0
150 0
151 0
152 0
153 0
154 0
155 0
156 0
-157 0
158 0
159 0
160 0
161 0
162 0
163 0
164 0
165 0
166 0
167 0
168 0
169 0
170 0
171 0
172 0
173 0
174 0
175 0
176 0
177 0
178 0
179 0
180 0
181 0
182 0
183 0
184 0
185 0
186 0
187 0
188 0
189 0
190 0
191 0
192 0
193 0
194 0
195 0
196 0
197 0
198 0
199 0
200 0
201 0
202 0
203 0
204 0
205 0
206 0
207 0
208 0
209 0
-210 0
211 0
212 0
213 0
214 0
215 0
216 0
217 0
218 0
219 0
-220 0
221 0
222 0
223 0
224 0
225 0
226 0
227 0
228 0
229 0
230 0
231 0
232 0
233 0
234 0
235 0
236 0
237 0
238 0
239 0
240 0
241 0
242 0
243 0
244 0
245 0
246 0
247 0
-248 0
249 0
250 0
251 0
252 0
253 0
254 0
255 0
256 0
257 0
258 0
259 0
260 0
261 0
262 0
263 0
264 0
265 0
266 0
267 0
268 0
269 0
270 0
271 0
272 0
273 0
274 0
275 0
276 0
277 0
278 0
279 0
280 0
281 0
282 0
283 0
284 0
285 0
286 0
287 0
288 0
289 0
290 0
291 0
292 0
293 0
294 0
295 0
296 0
297 0
298 0
299 0
300 0
301 0
302 0
303 0
304 0
305 0
306 0
307 0
308 0
-309 0
-310 0
-311 0
-312 0
-313 0
-314 0
-315 0
-316 0
-317 0
-318 0
-319 0
-320 0
-321 0
-322 0
-323 0
-324 0
-325 0
-326 0
-327 0
-328 0
-329 0
-330 0
-331 0
-332 0
-333 0
-334 0
-335 0
-336 0
-337 0
-338 0
-339 0
-340 0
-341 0
-342 0
-343 0
-344 0
-345 0
-346 0
-347 0
-348 0
-349 0
-350 0
-351 0
-352 0
-353 0
-354 0
-355 0
-356 0
-357 0
-358 0
-359 0
-360 0
-361 0
-362 0
-363 0
-364 0
-365 0
-366 0
-367 0
-368 0
-369 0
-370 0
-371 0
-372 0
-373 0
-374 0
-375 0
-376 0
-377 0
-378 0
-379 0
-380 0
-381 0
-382 0
-383 0
-384 0
-385 0
-386 0
-387 0
-388 0
-389 0
-390 0
-391 0
-392 0
-393 0
-398 0
-399 0
-400 0
-401 0
-403 0
-404 0
-405 0
-406 0
-407 0
-408 0
-409 0
-410 0
-411 0
-412 0
-413 0
-414 0
-416 0
-417 0
-418 0
-419 0
-420 0
-421 0
-422 0
-423 0
-424 0
-425 0
-426 0
-427 0
-428 0
-429 0
-430 0
-431 0
-432 0
-433 0
-434 0
-435 0
-436 0
-437 0
-438 0
-439 0
-440 0
-441 0
-442 0
-443 0
-444 0
-445 0
-446 0
-447 0
-448 0
-449 0
-450 0
-451 0
-452 0
-453 0
-454 0
-455 0
-456 0
-457 0
-458 0
-459 0
-460 0
-461 0
462 0
-463 0
-464 0
-465 0
-466 0
-467 0
-468 0
-469 0
-470 0
-471 0
-472 0
-473 0
-474 0
-475 0
-476 0
-477 0
-478 0
-479 0
-480 0
-481 0
-482 0
-483 0
-484 0
-485 0
-486 0
-487 0
-488 0
-489 0
-490 0
-491 0
-492 0
-493 0
-494 0
-495 0
-496 0
-497 0
-498 0
-499 0
-500 0
-501 0
-502 0
-503 0
-504 0
-505 0
-506 0
-507 0
-508 0
-509 0
-510 0
-511 0
-512 0
-513 0
-514 0
-515 0
-516 0
-517 0
-518 0
-519 0
-520 0
-521 0
-522 0
-523 0
-524 0
525 0
-526 0
-527 0
-528 0
-529 0
-530 0
-531 0
-532 0
-533 0
-534 0
-535 0
-536 0
-537 0
-538 0
-539 0
-540 0
-541 0
-542 0
-543 0
-544 0
-545 0
-546 0
-547 0
-548 0
-549 0
-550 0
-551 0
-552 0
553 0
-554 0
-555 0
-556 0
-557 0
-558 0
-559 0
-560 0
-561 0
-562 0
-563 0
-564 0
-565 0
-566 0
-567 0
-568 0
-569 0
-570 0
-571 0
-572 0
-573 0
-574 0
-575 0
-576 0
-577 0
-578 0
-579 0
-580 0
-581 0
-582 0
-583 0
-584 0
-585 0
-586 0
-587 0
-588 0
-589 0
-590 0
-591 0
-592 0
-593 0
-594 0
-595 0
-596 0
-597 0
-598 0
-599 0
-600 0
-601 0
-602 0
-603 0
-604 0
-605 0
-606 0
-607 0
-608 0
-609 0
-610 0
-611 0
-612 0
-613 0
614 0
615 0
616 0
-617 0
621 0
-622 0
-626 0
630 0
633 0
-634 0
637 0
639 0
662 0
663 0
672 0
680 0
688 0
-734 0
735 0
736 0
737 0
738 0
739 0
-746 0
767 0
796 0
919 0
948 0
967 0
995 0
1057 0
1058 0
1059 0
1060 0
1061 0
1062 0
1063 0
1064 0
1065 0
1066 0
1067 0
1068 0
1069 0
1070 0
1071 0
1072 0
1073 0
1074 0
1075 0
1076 0
-1077 0
1078 0
1079 0
1080 0
1081 0
1082 0
1083 0
1084 0
1085 0
1086 0
1087 0
1088 0
1089 0
1090 0
1091 0
1092 0
1093 0
1094 0
1095 0
1096 0
1097 0
1098 0
1099 0
1100 0
1101 0
1102 0
1103 0
1104 0
-1105 0
1106 0
1107 0
1108 0
1109 0
1110 0
1111 0
1112 0
1113 0
1114 0
1115 0
1116 0
1117 0
1118 0
1119 0
1120 0
1121 0
1122 0
1123 0
1124 0
1125 0
1126 0
1127 0
1128 0
1129 0
1130 0
1131 0
1132 0
-1133 0
1134 0
1135 0
1136 0
1137 0
1138 0
1139 0
1140 0
1141 0
1142 0
1143 0
1144 0
1145 0
1146 0
1147 0
1148 0
1149 0
1150 0
1151 0
1152 0
1153 0
1154 0
1155 0
1156 0
1157 0
1158 0
1159 0
1160 0
1161 0
1162 0
1163 0
1164 0
1165 0
1166 0
1167 0
1168 0
1169 0
1170 0
1171 0
-1260 0
1261 0
1262 0
1263 0
1264 0
1266 0
1267 0
1268 0
1269 0
1270 0
1271 0
1272 0
1273 0
1274 0
1275 0
1276 0
1277 0
1278 0
1279 0
1280 0
1281 0
1282 0
1283 0
1284 0
1285 0
1286 0
1287 0
1288 0
1289 0
1290 0
1291 0
1292 0
1293 0
1294 0
1295 0
1296 0
1297 0
1298 0
1299 0
1300 0
1301 0
1302 0
1303 0
1304 0
1305 0
1306 0
1307 0
1308 0
1309 0
1310 0
1311 0
1312 0
1313 0
1314 0
1315 0
1316 0
1317 0
1318 0
1319 0
1320 0
1321 0
1322 0
1323 0
1324 0
1325 0
1326 0
1327 0
1328 0
1329 0
1330 0
1331 0
1332 0
1333 0
1334 0
1335 0
1336 0
1337 0
1338 0
1339 0
1340 0
1341 0
1342 0
1343 0
1344 0
1345 0
1346 0
1347 0
1348 0
1349 0
1350 0
1351 0
1352 0
1353 0
1354 0
1355 0
1356 0
1357 0
1358 0
1359 0
1360 0
1361 0
1362 0
1363 0
1364 0
1365 0
1366 0
1367 0
1368 0
1369 0
1370 0
1371 0
1372 0
1373 0
1374 0
1375 0
1376 0
1377 0
1378 0
1379 0
1380 0
1381 0
1382 0
1383 0
1384 0
1385 0
1386 0
1387 0
1388 0
1389 0
1390 0
1391 0
1392 0
1393 0
1394 0
1395 0
1396 0
1397 0
1398 0
1399 0
1400 0
1401 0
1402 0
1403 0
1404 0
1405 0
1406 0
1407 0
1409 0
1410 0
1411 0
1412 0
1413 0
1414 0
1415 0
1416 0
1417 0
1418 0
1419 0
1420 0
1421 0
1422 0
1424 0
1425 0
1426 0
1427 0
1429 0
1430 0
1431 0
1432 0
1433 0
1434 0
1435 0
1436 0
1438 0
1439 0
1440 0
1441 0
1442 0
1443 0
1444 0
1446 0
1447 0
1448 0
1449 0
2147 0
-2148 0
-2149 0
-2150 0
-2151 0
-2152 0
-2153 0
-2154 0
-2155 0
-2156 0
-2157 0
-2158 0
-2159 0
-2160 0
-2161 0
-2162 0
-2163 0
-2164 0
-2165 0
-2166 0
-2167 0
-2168 0
-2169 0
-2170 0
-2171 0
-2172 0
-2173 0
-2174 0
-2175 0
-2176 0
-2177 0
-2178 0
-2179 0
-2180 0
-2181 0
-2182 0
-2183 0
-2184 0
-2185 0
-2186 0
-2187 0
-2188 0
-2189 0
-2190 0
-2191 0
-2192 0
-2193 0
-2194 0
-2195 0
-2196 0
-2197 0
-2198 0
-2199 0
-2200 0
-2201 0
-2202 0
-2203 0
-2204 0
-2205 0
-2206 0
-2207 0
-2208 0
-2209 0
-2210 0
-2211 0
-2212 0
-2213 0
-2214 0
-2215 0
-2216 0
-2217 0
-2218 0
-2219 0
-2220 0
-2221 0
-2222 0
-2223 0
-2224 0
-2225 0
-2226 0
-2227 0
-2228 0
-2229 0
-2230 0
-2231 0
-2232 0
-2237 0
-2238 0
-2239 0
-2240 0
-2242 0
-2243 0
-2244 0
-2245 0
-2246 0
-2247 0
-2248 0
-2249 0
-2250 0
-2251 0
-2252 0
-2253 0
-2255 0
-2256 0
-2257 0
-2258 0
-2259 0
-2260 0
-2261 0
-2262 0
-2263 0
-2264 0
-2265 0
-2266 0
-2267 0
-2268 0
-2269 0
-2270 0
-2271 0
-2272 0
-2273 0
-2274 0
-2275 0
-2276 0
-2277 0
-2278 0
-2279 0
-2280 0
-2281 0
-2282 0
-2283 0
-2284 0
-2285 0
-2286 0
-2287 0
-2288 0
-2289 0
-2290 0
-2291 0
-2292 0
-2293 0
-2294 0
-2295 0
-2296 0
-2297 0
-2298 0
-2299 0
-2300 0
-2301 0
-2302 0
-2303 0
-2304 0
-2305 0
-2306 0
-2307 0
-2308 0
-2309 0
-2310 0
-2311 0
-2312 0
-2313 0
-2314 0
-2315 0
-2316 0
-2317 0
-2318 0
-2319 0
-2320 0
-2321 0
-2322 0
-2323 0
-2324 0
-2325 0
-2326 0
-2327 0
-2328 0
-2329 0
-2330 0
-2331 0
-2332 0
-2333 0
-2334 0
-2335 0
-2336 0
-2337 0
-2338 0
-2339 0
-2340 0
-2341 0
-2342 0
-2343 0
-2344 0
-2345 0
-2346 0
-2347 0
-2348 0
-2349 0
-2350 0
-2351 0
-2352 0
-2353 0
-2354 0
-2355 0
-2356 0
-2357 0
-2358 0
-2359 0
-2360 0
-2361 0
-2362 0
-2363 0
-2364 0
-2365 0
-2366 0
-2367 0
-2368 0
-2369 0
-2370 0
-2371 0
-2372 0
-2373 0
-2374 0
-2375 0
-2376 0
-2377 0
-2378 0
-2379 0
-2380 0
-2381 0
-2382 0
-2383 0
-2384 0
-2385 0
-2386 0
-2387 0
-2388 0
-2389 0
-2390 0
-2391 0
-2392 0
-2393 0
-2394 0
-2395 0
-2396 0
-2397 0
-2398 0
-2399 0
-2400 0
-2401 0
-2402 0
-2403 0
-2404 0
-2405 0
-2406 0
-2407 0
-2408 0
-2409 0
-2410 0
-2411 0
-2412 0
-2413 0
-2414 0
-2415 0
-2416 0
-2417 0
-2418 0
-2419 0
-2420 0
-2421 0
-2422 0
-2423 0
-2424 0
-2425 0
-2426 0
-2427 0
-2428 0
-2429 0
-2430 0
-2431 0
-2432 0
-2433 0
-2434 0
-2435 0
-2436 0
-2437 0
-2438 0
-2439 0
-2440 0
-2441 0
-2442 0
-2443 0
-2444 0
-2445 0
-2446 0
-2447 0
-2448 0
-2449 0
-2450 0
-2451 0
-2452 0
-1479 0
-1480 0
-1481 0
-1482 0
-1483 0
-1484 0
-1485 0
-1486 0
-1487 0
-1488 0
-1489 0
-1490 0
-1491 0
-1492 0
-1493 0
-1494 0
-1495 0
-1496 0
-1497 0
-1498 0
-1499 0
-1500 0
-1501 0
-1502 0
-1503 0
-1504 0
-1505 0
-1506 0
-1507 0
-1508 0
-1509 0
-1510 0
-1511 0
-1512 0
-1513 0
-1514 0
-1515 0
-1516 0
-1517 0
-1518 0
-1519 0
-1520 0
-1521 0
-1913 0
-1914 0
-1915 0
-1916 0
-1917 0
-1918 0
-1919 0
-1920 0
-1921 0
-1922 0
-1923 0
-1660 0
-1924 0
-1925 0
-1567 0
-1568 0
-1569 0
-1570 0
-1571 0
-1743 0
-1744 0
-1745 0
-1746 0
-1926 0
-1747 0
-1927 0
-1748 0
-1749 0
-1750 0
-1928 0
-1728 0
-1929 0
-1729 0
-1730 0
-1731 0
-1732 0
-1733 0
-1734 0
-1735 0
-1930 0
-1736 0
-1737 0
-1738 0
-1931 0
-1932 0
-1739 0
-1740 0
-1933 0
-1934 0
-1741 0
-1742 0
-1706 0
-1707 0
-1708 0
-1709 0
-1710 0
-1935 0
-1711 0
-1712 0
-1713 0
-1714 0
-1661 0
-1715 0
-1936 0
-1937 0
-1716 0
-1717 0
-1718 0
-1719 0
-1938 0
-1939 0
-1720 0
-1721 0
-1722 0
-1723 0
-1724 0
-1725 0
-1726 0
-1727 0
-1662 0
-1663 0
-1940 0
-1941 0
-1664 0
-1665 0
-1666 0
-1942 0
-1943 0
-1667 0
-1668 0
-1669 0
-1670 0
-1671 0
-1672 0
-1673 0
-1674 0
-1944 0
-1675 0
-1676 0
-1677 0
-1678 0
-1679 0
-1680 0
-1945 0
-1681 0
-1946 0
-1682 0
-1947 0
-1683 0
-1948 0
-1684 0
-1685 0
-1686 0
-1687 0
-1688 0
-1689 0
-1751 0
-1690 0
-1949 0
-1950 0
-1691 0
-1692 0
-1951 0
-1693 0
-1694 0
-1695 0
-1696 0
-1697 0
-1698 0
-1699 0
-1700 0
-1701 0
-1702 0
-1703 0
-1952 0
-1704 0
-1705 0
-1572 0
-1573 0
-1574 0
-1575 0
-1953 0
-1576 0
-1954 0
-1577 0
-1955 0
-1578 0
-1956 0
-1579 0
-1580 0
-1581 0
-1582 0
-1583 0
-1584 0
-1585 0
-1586 0
-1587 0
-1588 0
-1589 0
-1590 0
-1591 0
-1592 0
-1593 0
-1594 0
-1595 0
-1752 0
-1596 0
-1597 0
-1598 0
-1599 0
-1600 0
-1601 0
-1602 0
-1603 0
-1604 0
-1605 0
-1606 0
-1607 0
-1608 0
-1609 0
-1610 0
-1611 0
-1612 0
-1613 0
-1614 0
-1615 0
-1869 0
-1870 0
-1871 0
-1872 0
-1873 0
-1874 0
-1875 0
-1876 0
-1877 0
-1878 0
-1879 0
-1880 0
-1881 0
-1882 0
-1883 0
-1884 0
-1885 0
-1886 0
-1887 0
-1888 0
-1889 0
-1890 0
-1891 0
-1892 0
-1893 0
-1894 0
-1895 0
-1896 0
-1897 0
-1898 0
-1899 0
-1900 0
-1901 0
-1902 0
-1903 0
-1904 0
-1905 0
-1906 0
-1907 0
-1908 0
-1909 0
-1910 0
-1911 0
-1912 0
-1522 0
-1523 0
-1524 0
-1525 0
-1526 0
-1527 0
-1528 0
-1753 0
-1529 0
-1530 0
-1531 0
-1532 0
-1533 0
-1534 0
-1535 0
-1536 0
-1537 0
-1538 0
-1539 0
-1540 0
-1541 0
-1542 0
-1543 0
-1544 0
-1545 0
-1546 0
-1547 0
-1548 0
-1549 0
-1550 0
-1551 0
-1552 0
-1553 0
-1554 0
-1555 0
-1556 0
-1557 0
-1558 0
-1559 0
-1560 0
-1561 0
-1562 0
-1563 0
-1564 0
-1565 0
-1616 0
-1617 0
-1566 0
-1618 0
-1619 0
-1620 0
-1621 0
-1622 0
-1623 0
-1624 0
-1625 0
-1626 0
-1627 0
-1628 0
-1629 0
-1630 0
-1631 0
-1632 0
-1633 0
-1634 0
-1635 0
-1636 0
-1637 0
-1638 0
-1639 0
-1640 0
-1641 0
-1642 0
-1643 0
-1644 0
-1645 0
-1646 0
-1647 0
-1648 0
-1649 0
-1650 0
-1651 0
-1652 0
-1653 0
-1654 0
-1655 0
-1656 0
-1657 0
-1658 0
-1659 0
-1450 0
-1451 0
-1452 0
-1453 0
-1454 0
-1455 0
-1456 0
-1457 0
-1458 0
-1459 0
-1460 0
-1461 0
-1462 0
-1463 0
-1464 0
-1465 0
-1466 0
-1467 0
-1468 0
-1469 0
-1470 0
-1471 0
-1472 0
-1473 0
-1474 0
-1475 0
-1476 0
-1477 0
-1478 0

